         291
  Built with Packmol                                             
  Ar          20.431118        4.021580        1.972434
  Ar          13.527282        4.575069        7.689038
  Ar          20.337572       20.773239        5.226063
  Ar           0.000152        2.164014       20.400811
  Ar           4.104922       21.602804        6.978579
  Ar          19.802347        7.821996        0.000133
  Ar          12.717540       16.682322        3.248787
  Ar          18.473855       20.061919       11.350665
  Ar          11.890139       15.950292       12.563884
  Ar           3.621364        3.747289       12.570294
  Ar           3.088294        0.000264       18.774233
  Ar          23.999894        8.185725       12.133880
  Ar          10.039069       19.535508        0.000024
  Ar          18.312063       12.028579        0.003906
  Ar          23.999947       23.082029        0.003747
  Ar          24.000650        7.516382       19.383114
  Ar          19.526721       14.395339       11.693164
  Ar          14.353044       18.728103        0.000252
  Ar           3.972867       11.853852        7.686884
  Ar          21.766338        0.000081       23.999929
  Ar           9.049256        6.808188        4.293815
  Ar          17.385143       17.456862       22.060932
  Ar          22.487345        0.000095       19.740644
  Ar          20.392137       23.174781       14.663306
  Ar           8.667625       16.353232        4.933174
  Ar          17.496239        6.485973       18.057530
  Ar           6.820724       19.919833        9.992539
  Ar           5.676776        4.668191       23.999682
  Ar          15.597372       23.999715       23.999720
  Ar          10.240749        8.964643        0.650768
  Ar          23.999874        0.000188       11.623853
  Ar          10.101813       23.999857        0.000322
  Ar           0.004581       21.452732       13.994301
  Ar          23.999876        0.917919        2.908993
  Ar          15.322556       13.425428       20.683659
  Ar           3.329170        4.983136        2.696897
  Ar          15.099322       21.757620       13.622786
  Ar           2.194084        0.010790       14.479066
  Ar          14.193522       15.517091       23.999661
  Ar           8.300967        0.000062        0.000052
  Ar          19.865277       17.204791        8.326503
  Ar          17.937424       10.906736       18.204177
  Ar           7.750367       14.085584        9.013447
  Ar          18.550143        0.000883       17.684372
  Ar          11.491523        0.005599       12.795804
  Ar          10.601541        7.522254       20.131872
  Ar          23.309176        4.044978       10.894754
  Ar           6.088864        2.285279       20.686858
  Ar           0.000019       15.396173       23.999994
  Ar           0.000250       21.857820        6.830503
  Ar          19.102731        3.560553       10.347639
  Ar          11.681885       23.999661       14.500642
  Ar          23.999948        7.413005        7.804236
  Ar          21.097576        8.553694       16.834378
  Ar           0.003216       19.450521       22.340984
  Ar          16.758870        3.697584        4.366689
  Ar          14.043083       20.221659       23.990578
  Ar          20.418164        6.011336       13.565121
  Ar           0.000076       23.999806       10.534347
  Ar          12.968703       23.999995       19.737994
  Ar           0.000016        9.529261        7.045377
  Ar           3.798835        9.140660       19.068379
  Ar          23.999925        8.267891        0.749196
  Ar          23.999913        1.089251       15.825857
  Ar          18.250235       13.820603       23.999664
  Ar          20.438818       23.999815       18.939553
  Ar          16.244500        0.000193        1.991041
  Ar          16.955985       10.731436       10.653881
  Ar           4.524860       23.999774       23.999970
  Ar          13.449144        6.754055       16.868166
  Ar          20.041414        0.000015        4.198457
  Ar          20.734132       13.652954       16.210548
  Ar          12.463489        2.812901       15.474386
  Ar           9.048779        5.535145       15.330344
  Ar           0.000106        4.456458       23.999863
  Ar           6.659073        7.006255       11.946231
  Ar           3.089009        3.696676       16.935876
  Ar          20.112965       16.562019        3.983832
  Ar           6.204533       14.735933       20.178758
  Ar          23.999741       11.239937       15.289590
  Ar           9.942500        3.494767       11.601411
  Ar           4.429139        8.778705       23.419254
  Ar           3.200149        0.000119        9.939474
  Ar           8.133780       10.509524        6.484652
  Ar           5.130859        7.613261        7.870531
  Ar           4.550057        2.246655        0.004369
  Ar           0.000216        2.397953       10.965458
  Ar          13.987328       11.592316        0.000047
  Ar          17.292870        0.008082       10.671398
  Ar           2.652389       20.816641       11.054770
  Ar          21.008645        0.179153        0.000079
  Ar          23.996570       13.436470       19.074715
  Ar          19.030536        9.498787       23.999862
  Ar          23.999799        3.985534        0.000215
  Ar           3.326781        9.825895        0.000172
  Ar          23.999913       22.620178        3.977022
  Ar          23.999993       23.960020       12.283307
  Ar          20.441940       17.678164       14.463510
  Ar          23.999908       19.620833       12.995195
  Ar           3.598807       20.027615       23.995997
  Ar          11.895362       13.281805        7.792715
  Ar           0.000231        5.113901        5.224122
  Ar          10.073333       12.592786        3.134150
  Ar          12.400854        0.000099        4.115691
  Ar          12.964409        0.000316       18.482376
  Ar          16.854096       22.298777       20.558253
  Ar          16.980581        5.857941       22.752723
  Ar          10.715387       20.549858       21.112928
  Ar           5.163567       23.999701       10.250992
  Ar          10.622415        3.144003       19.746092
  Ar          12.383896        0.000204        8.504674
  Ar          22.385788       10.463712       21.552304
  Ar           7.341990        0.000087       23.999856
  Ar          12.977987        7.031583       23.999961
  Ar          14.272532        7.226546        0.375445
  Ar          16.076656       17.484472       13.967921
  Ar           9.979048        3.814217       23.999959
  Ar           3.895570       20.316015       16.247378
  Ar           8.218742       18.066775       13.724549
  Ar          19.020410        2.184653       21.002531
  Ar           6.651896        1.851879       15.133879
  Ar           7.379236        0.000158       11.300853
  Ar           0.000085        5.742506       13.817166
  Ar          15.831158       23.999977        0.000206
  Ar           1.352683        6.294729        9.693439
  Ar           0.817514       17.878477        8.343810
  Ar          14.362723       18.960803       19.243375
  Ar           2.866213        5.281595       21.034140
  Ar           2.235549       22.443482       20.744879
  Ar           6.349306       21.922343        0.128649
  Ar           9.683527        6.493211        8.632890
  Ar           3.664562       13.018899       23.999737
  Ar          23.999862       18.685009        5.860409
  Ar          22.093105       13.561674        7.271672
  Ar           2.887507        1.254190       23.962035
  Ar          16.640272        3.567486        0.000187
  Ar          23.999990       12.452449       11.071243
  Ar           1.429148       17.612401       13.807445
  Ar          16.246339       16.205648        6.046505
  Ar           5.817583       11.654646       16.455102
  Ar          23.999822       23.999940       16.673046
  Ar           9.266196       10.332671       10.730103
  Ar           0.000141       13.912984        6.714577
  Ar          14.893589       10.980264       23.999692
  Ar          13.279975        9.220549        8.757591
  Ar           2.410459       16.014966        3.829636
  Ar          20.486150       10.396482       13.254220
  Ar          21.267314       17.006452       23.999929
  Ar           0.350631       10.147294       23.998954
  Ar           0.000346        6.073582       18.187909
  Ar           2.051666       22.721917        0.000938
  Ar           9.606070        9.886548       15.091351
  Ar          11.457103        0.000081       22.607066
  Ar          16.452947       19.740351        3.443870
  Ar           0.000071       23.999951       23.999896
  Ar          13.010631       19.951762        6.171556
  Ar          13.380305       11.147713       16.965874
  Ar          20.471789       23.999948        1.892440
  Ar          16.659445       23.999890        4.083855
  Ar          23.999947       20.404202       23.999921
  Ar           6.470458        0.000189        6.998144
  Ar           7.132009       16.321843        0.726102
  Ar          13.261226       15.532533       16.720034
  Ar          13.504622       23.999852       10.306004
  Ar           6.214272       16.598700       23.999857
  Ar           7.382503       10.504838       20.401742
  Ar           8.664141       20.605681        6.059853
  Ar          10.673629       21.121103       11.733596
  Ar          22.170081       20.697670        9.238414
  Ar           3.153214        2.603172        6.388357
  Ar          21.206048       23.999803       23.999874
  Ar          18.988550       20.421620        0.000076
  Ar          12.697724       23.999706        5.985069
  Ar          20.897842       20.349331       20.967211
  Ar          17.077359        9.521905        2.866134
  Ar           5.784354       13.193631        3.909375
  Ar          15.463514        0.000321       14.645044
  Ar          15.012803        3.339837       19.740589
  Ar          23.999953        7.185427       23.999978
  Ar           3.652817        7.650355       15.091097
  Ar          20.002890       23.999437        7.645889
  Ar          17.464622       16.066020       17.892032
  Ar          20.996064        0.001117        8.509125
  Ar           1.744518       11.526222        3.563606
  Ar           3.532646       18.592785        0.000982
  Ar          20.866128        4.082375       24.001152
  Ar           8.728061       17.653648       18.063629
  Ar          23.999959       13.605763       23.999962
  Ar           0.000061        7.899145        1.828979
  Ar          14.343075       12.706562        4.187329
  Ar           6.161817       20.553979       20.148214
  Ar           0.000263       16.619792        0.416075
  Ar          12.581706        0.937184        0.000130
  Ar           6.916013       22.267657       13.712378
  Ar           4.244496        0.003019        3.301799
  Ar          14.281713        2.528081       11.434872
  Ar          15.768053       -0.000251       21.807821
  Ar           8.205276       13.685503       13.370506
  Ar           4.986105       11.073752       11.896095
  Ar           9.757029        2.658208        6.479533
  Ar          23.996415        2.222986        7.073346
  Ar           8.747067        8.235559       23.999950
  Ar           0.000084       19.876972       18.040340
  Ar          13.110202        8.490567        4.423764
  Ar          13.066740       11.718126       12.454516
  Ar           0.000138       14.563758       11.063787
  Ar          23.997990        3.232868       21.662463
  Ar           3.358284       14.223231        0.000070
  Ar           3.091034       23.996140       14.066806
  Ar          22.820798       19.097840        1.620890
  Ar          16.800374        3.824628       14.781240
  Ar          20.699534        8.296752        5.031518
  Ar           0.000047       23.999792       17.444143
  Ar           0.000165        9.706017       15.715050
  Ar          23.999670       16.027227       15.530246
  Ar          16.597239       15.444863        1.588968
  Ar          17.961640       12.202184        6.634314
  Ar          17.763585       23.998342       11.359913
  Ar          16.724042        7.428276        6.697199
  Ar           6.369088        6.659541        0.000004
  Ar          20.788099        3.515629       17.400076
  Ar          23.999749        5.478620       15.592381
  Ar          23.999855       17.480788       20.805001
  Ar           0.000101        0.047533        2.777157
  Ar           6.576251        6.267727       18.888956
  Ar          16.556164       13.178314       14.700778
  Ar           7.947701       23.997305       21.219148
  Ar           5.369632       19.256027        3.491768
  Ar          23.999868        5.266991        3.965238
  Ar           0.013280       10.019591       20.015250
  Ar           6.407257        3.607982        9.168567
  Ar           4.168664       15.338123       11.228182
  Ar           4.202413       23.999961        3.334097
  Ar          17.845750       20.312379       16.829682
  Ar          16.295377       23.999136       16.894240
  Ar          23.999997       16.646616        9.756474
  Ar          15.939549        6.462838       10.914271
  Ar          23.999851       14.895999        3.631266
  Ar          10.407027       17.794763       23.996456
  Ar           8.570118        0.000421       18.331742
  Ar          14.761888        8.891468       20.481359
  Ar           0.798544       20.020365        2.982440
  Ar          23.999974       12.581603        0.000093
  Ar          10.278804        4.678200        0.000299
  Ar           4.984469       17.012184        7.249292
  Ar          16.261772        0.000131        6.440933
  Ar          16.614066        8.784901       14.584425
  Ar          20.319400        0.209123       13.757542
  Ar          16.490203       21.989896        7.921862
  Ar          23.075730       19.856035       17.265770
  Ar          14.254701       19.030121       10.281294
  Ar           2.185910       13.211936       14.528487
  Ar           9.122435       22.457694       17.512041
  Ar          20.042768        7.794040        9.560560
  Ar          20.569979        4.155087        6.347602
  Ar          20.418831        6.422519       20.788112
  Ar          11.878450        7.232365       12.422150
  Ar          23.999658       10.683919        4.881782
  Ar           5.096749       16.086319       16.141555
  Ar           2.116456       13.415787       20.226494
  Ar          11.464193       11.554803       21.658406
  Ar           0.000193        0.000093        7.171364
  Ar          20.696760       12.280685        3.205487
  Ar          23.999779       23.568265       21.039810
  Ar           0.000287       15.553563       17.276044
  Ar           0.684020       10.270806       11.442436
  Ar          12.500747        4.229982        3.426534
  Ar          23.994799       23.996408        7.900796
  Ar          12.857065       21.976021        2.274654
  Ar           5.207542        8.841471        3.657467
  Ar           2.921083       17.599588       20.325725
  Ar           8.043469       12.620440       23.999824
  Ar           0.000265       12.049818        0.002207
  Ar           0.000593       23.999753        3.188450
  Ar           9.285636       23.999969        8.744793
  Ar           7.150375       12.000763        0.000087
  Ar           5.106200       23.999822       17.914132
  Ar          11.684254       15.832794       20.753097
  Ar           8.571410       23.999694        3.752733
  Ar          20.368449       14.191297       20.580431
  Ar          11.243134       23.738449       23.999916
  Ar           9.648231       13.301970       17.854440
  Ar          10.366381       17.612778        8.790208
  Ar           7.659977       21.133848       23.997285
  Ar          20.862949       15.606118        0.000214
  Ar          18.338217       20.886457       23.993818
  Ar          15.331739       14.775993       10.092653
  Ar           7.273381        3.046202        2.869967
  Ar          11.878669       19.570796       15.666612
  Ar          11.129168       14.911791        0.000396
  Ar          14.191637        2.950883       24.000013
